
Gurobi 9.1.2 (win64) logging started Sat Dec  4 18:07:10 2021


Gurobi 9.1.2 (win64) logging started Sat Dec  4 18:07:56 2021

Gurobi Optimizer version 9.1.2 build v9.1.2rc0 (win64)
Thread count: 8 physical cores, 8 logical processors, using up to 8 threads
Optimize a model with 1 rows, 596 columns and 595 nonzeros
Model fingerprint: 0x6338475c
Variable types: 1 continuous, 595 integer (595 binary)
Coefficient statistics:
  Matrix range     [1e+00, 1e+01]
  Objective range  [1e+00, 1e+00]
  Bounds range     [1e+06, 1e+06]
  RHS range        [1e+01, 1e+01]

Gurobi 9.1.2 (win64) logging started Sat Dec  4 18:08:45 2021

Gurobi Optimizer version 9.1.2 build v9.1.2rc0 (win64)
Thread count: 8 physical cores, 8 logical processors, using up to 8 threads
Optimize a model with 1 rows, 596 columns and 595 nonzeros
Model fingerprint: 0x6338475c
Variable types: 1 continuous, 595 integer (595 binary)
Coefficient statistics:
  Matrix range     [1e+00, 1e+01]
  Objective range  [1e+00, 1e+00]
  Bounds range     [1e+06, 1e+06]
  RHS range        [1e+01, 1e+01]

Gurobi 9.1.2 (win64) logging started Sat Dec  4 18:10:29 2021

Gurobi Optimizer version 9.1.2 build v9.1.2rc0 (win64)
Thread count: 8 physical cores, 8 logical processors, using up to 8 threads
Optimize a model with 1 rows, 596 columns and 595 nonzeros
Model fingerprint: 0x6338475c
Variable types: 1 continuous, 595 integer (595 binary)
Coefficient statistics:
  Matrix range     [1e+00, 1e+01]
  Objective range  [1e+00, 1e+00]
  Bounds range     [1e+06, 1e+06]
  RHS range        [1e+01, 1e+01]

Gurobi 9.1.2 (win64) logging started Sat Dec  4 18:12:26 2021

Gurobi Optimizer version 9.1.2 build v9.1.2rc0 (win64)
Thread count: 8 physical cores, 8 logical processors, using up to 8 threads
Optimize a model with 1 rows, 596 columns and 595 nonzeros
Model fingerprint: 0x6338475c
Variable types: 1 continuous, 595 integer (595 binary)
Coefficient statistics:
  Matrix range     [1e+00, 1e+01]
  Objective range  [1e+00, 1e+00]
  Bounds range     [1e+06, 1e+06]
  RHS range        [1e+01, 1e+01]

Gurobi 9.1.2 (win64) logging started Sat Dec  4 18:14:39 2021

Gurobi Optimizer version 9.1.2 build v9.1.2rc0 (win64)
Thread count: 8 physical cores, 8 logical processors, using up to 8 threads
Optimize a model with 1 rows, 596 columns and 595 nonzeros
Model fingerprint: 0x6338475c
Variable types: 1 continuous, 595 integer (595 binary)
Coefficient statistics:
  Matrix range     [1e+00, 1e+01]
  Objective range  [1e+00, 1e+00]
  Bounds range     [1e+06, 1e+06]
  RHS range        [1e+01, 1e+01]

Gurobi 9.1.2 (win64) logging started Sat Dec  4 18:16:10 2021

Gurobi Optimizer version 9.1.2 build v9.1.2rc0 (win64)
Thread count: 8 physical cores, 8 logical processors, using up to 8 threads
Optimize a model with 1 rows, 596 columns and 595 nonzeros
Model fingerprint: 0x6338475c
Variable types: 1 continuous, 595 integer (595 binary)
Coefficient statistics:
  Matrix range     [1e+00, 1e+01]
  Objective range  [1e+00, 1e+00]
  Bounds range     [1e+06, 1e+06]
  RHS range        [1e+01, 1e+01]

Gurobi 9.1.2 (win64) logging started Sat Dec  4 18:18:39 2021

Gurobi Optimizer version 9.1.2 build v9.1.2rc0 (win64)
Thread count: 8 physical cores, 8 logical processors, using up to 8 threads
Optimize a model with 1 rows, 596 columns and 595 nonzeros
Model fingerprint: 0x6338475c
Variable types: 1 continuous, 595 integer (595 binary)
Coefficient statistics:
  Matrix range     [1e+00, 1e+01]
  Objective range  [1e+00, 1e+00]
  Bounds range     [1e+06, 1e+06]
  RHS range        [1e+01, 1e+01]

Gurobi 9.1.2 (win64) logging started Sat Dec  4 18:19:58 2021

Gurobi Optimizer version 9.1.2 build v9.1.2rc0 (win64)
Thread count: 8 physical cores, 8 logical processors, using up to 8 threads
Optimize a model with 1 rows, 596 columns and 595 nonzeros
Model fingerprint: 0x6338475c
Variable types: 1 continuous, 595 integer (595 binary)
Coefficient statistics:
  Matrix range     [1e+00, 1e+01]
  Objective range  [1e+00, 1e+00]
  Bounds range     [1e+06, 1e+06]
  RHS range        [1e+01, 1e+01]

Gurobi 9.1.2 (win64) logging started Sat Dec  4 18:21:23 2021

Gurobi Optimizer version 9.1.2 build v9.1.2rc0 (win64)
Thread count: 8 physical cores, 8 logical processors, using up to 8 threads
Optimize a model with 1 rows, 596 columns and 595 nonzeros
Model fingerprint: 0x6338475c
Variable types: 1 continuous, 595 integer (595 binary)
Coefficient statistics:
  Matrix range     [1e+00, 1e+01]
  Objective range  [1e+00, 1e+00]
  Bounds range     [1e+06, 1e+06]
  RHS range        [1e+01, 1e+01]

Gurobi 9.1.2 (win64) logging started Sat Dec  4 18:22:25 2021

Gurobi Optimizer version 9.1.2 build v9.1.2rc0 (win64)
Thread count: 8 physical cores, 8 logical processors, using up to 8 threads
Optimize a model with 1 rows, 596 columns and 595 nonzeros
Model fingerprint: 0x6338475c
Variable types: 1 continuous, 595 integer (595 binary)
Coefficient statistics:
  Matrix range     [1e+00, 1e+01]
  Objective range  [1e+00, 1e+00]
  Bounds range     [1e+06, 1e+06]
  RHS range        [1e+01, 1e+01]
Presolve time: 0.00s
Presolved: 1 rows, 596 columns, 595 nonzeros
Variable types: 1 continuous, 595 integer (595 binary)

Root simplex log...

Iteration    Objective       Primal Inf.    Dual Inf.      Time
       0   -1.0000000e+06   8.954654e+02   0.000000e+00     20s
       2   -3.3224105e+02   0.000000e+00   0.000000e+00     20s

Root relaxation: objective -3.322410e+02, 2 iterations, 0.00 seconds

    Nodes    |    Current Node    |     Objective Bounds      |     Work
 Expl Unexpl |  Obj  Depth IntInf | Incumbent    BestBd   Gap | It/Node Time

     0     0 -332.24105    0    1          - -332.24105      -     -   20s
H    0     0                       0.9195978 -332.24105      -     -   21s
     0     0 -186.14988    0    3    0.91960 -186.14988      -     -   24s
     0     0 -186.14988    0    3    0.91960 -186.14988      -     -   27s
     0     0  -95.95015    0    5    0.91960  -95.95015      -     -   28s
     0     0  -95.95015    0    5    0.91960  -95.95015      -     -   30s
     0     0  -87.23958    0    9    0.91960  -87.23958  9587%     -   30s
     0     0  -87.08170    0   10    0.91960  -87.08170  9570%     -   32s
     0     0  -84.78930    0    8    0.91960  -84.78930  9320%     -   32s
     0     0  -84.71764    0    7    0.91960  -84.71764  9312%     -   32s
     0     0  -82.75565    0    7    0.91960  -82.75565  9099%     -   32s
     0     0  -82.75565    0    7    0.91960  -82.75565  9099%     -   37s
     0     0  -78.81430    0    8    0.91960  -78.81430  8671%     -   37s
     0     0  -78.77656    0    8    0.91960  -78.77656  8666%     -   37s
     0     0  -70.08152    0    9    0.91960  -70.08152  7721%     -   37s
     0     0  -70.08152    0    9    0.91960  -70.08152  7721%     -   40s
     0     0  -69.03114    0    7    0.91960  -69.03114  7607%     -   40s
     0     0  -68.99239    0    9    0.91960  -68.99239  7602%     -   40s
     0     0  -66.57316    0    9    0.91960  -66.57316  7339%     -   40s
     0     0  -66.57316    0    9    0.91960  -66.57316  7339%     -   46s
     0     0  -66.57316    0   10    0.91960  -66.57316  7339%     -   47s
     0     0  -66.57316    0   10    0.91960  -66.57316  7339%     -   50s
     0     0  -65.31798    0    9    0.91960  -65.31798  7203%     -   53s
     0     0  -63.75556    0    9    0.91960  -63.75556  7033%     -   53s
     0     0  -63.75556    0    9    0.91960  -63.75556  7033%     -   55s
     0     0  -63.52312    0    9    0.91960  -63.52312  7008%     -   55s
     0     0  -63.50099    0   10    0.91960  -63.50099  7005%     -   55s
     0     0  -62.41720    0   15    0.91960  -62.41720  6887%     -   55s
     0     0  -61.14794    0   12    0.91960  -61.14794  6749%     -   59s
     0     0  -56.91924    0   10    0.91960  -56.91924  6290%     -   59s
     0     0  -56.75457    0   10    0.91960  -56.75457  6272%     -   59s
     0     0  -56.58097    0   11    0.91960  -56.58097  6253%     -   59s
     0     0  -56.31532    0   11    0.91960  -56.31532  6224%     -   59s
     0     0  -56.30921    0   11    0.91960  -56.30921  6223%     -   59s
     0     0  -56.15536    0   11    0.91960  -56.15536  6207%     -   59s
     0     0  -56.13131    0   11    0.91960  -56.13131  6204%     -   59s
     0     0  -56.10399    0   12    0.91960  -56.10399  6201%     -   59s
     0     0  -56.06884    0   12    0.91960  -56.06884  6197%     -   59s
     0     0  -56.06461    0   12    0.91960  -56.06461  6197%     -   59s
     0     0  -56.02033    0   12    0.91960  -56.02033  6192%     -   59s
     0     0  -56.02033    0   12    0.91960  -56.02033  6192%     -   60s
     0     0  -55.72255    0   12    0.91960  -55.72255  6159%     -   60s
     0     0  -55.68237    0   11    0.91960  -55.68237  6155%     -   60s
     0     0  -55.67822    0   11    0.91960  -55.67822  6155%     -   60s
     0     0  -55.37552    0   10    0.91960  -55.37552  6122%     -   60s
     0     0  -55.31984    0   10    0.91960  -55.31984  6116%     -   60s
     0     0  -55.26382    0   11    0.91960  -55.26382  6110%     -   60s
     0     0  -55.20504    0   11    0.91960  -55.20504  6103%     -   60s
     0     0  -55.09816    0   12    0.91960  -55.09816  6092%     -   61s
     0     0  -55.01125    0   13    0.91960  -55.01125  6082%     -   61s
     0     0  -55.01125    0   13    0.91960  -55.01125  6082%     -   65s
     0     0  -55.00909    0   13    0.91960  -55.00909  6082%     -   65s
     0     0  -55.00909    0   13    0.91960  -55.00909  6082%     -   65s
     0     0  -55.00909    0   13    0.91960  -55.00909  6082%     -   70s
     0     2  -55.00909    0   13    0.91960  -55.00909  6082%     -   71s
    30    21   -3.08766    6    4    0.91960  -45.39274  5036%   5.0   75s
   268   192   -2.02880   33    8    0.91960  -40.13687  4465%   3.9   82s
   381   267   -7.60588   48    6    0.91960  -40.13687  4465%   3.7   93s

Gurobi 9.1.2 (win64) logging started Sat Dec  4 18:26:51 2021

Gurobi Optimizer version 9.1.2 build v9.1.2rc0 (win64)
Thread count: 8 physical cores, 8 logical processors, using up to 8 threads
Optimize a model with 1 rows, 596 columns and 595 nonzeros
Model fingerprint: 0x6338475c
Variable types: 1 continuous, 595 integer (595 binary)
Coefficient statistics:
  Matrix range     [1e+00, 1e+01]
  Objective range  [1e+00, 1e+00]
  Bounds range     [1e+06, 1e+06]
  RHS range        [1e+01, 1e+01]
Presolve time: 0.00s
Presolved: 1 rows, 596 columns, 595 nonzeros
Variable types: 1 continuous, 595 integer (595 binary)

Root simplex log...

Iteration    Objective       Primal Inf.    Dual Inf.      Time
       0   -1.0000000e+06   8.954654e+02   0.000000e+00     23s
       2   -3.3224105e+02   0.000000e+00   0.000000e+00     23s

Root relaxation: objective -3.322410e+02, 2 iterations, 0.00 seconds

    Nodes    |    Current Node    |     Objective Bounds      |     Work
 Expl Unexpl |  Obj  Depth IntInf | Incumbent    BestBd   Gap | It/Node Time

     0     0 -332.24105    0    1          - -332.24105      -     -   23s
H    0     0                       0.9195978 -332.24105      -     -   24s
     0     0 -186.14988    0    3    0.91960 -186.14988      -     -   30s
     0     0  -95.95015    0    5    0.91960  -95.95015      -     -   34s
     0     0  -95.95015    0    5    0.91960  -95.95015      -     -   36s
     0     0  -87.23958    0    9    0.91960  -87.23958  9587%     -   37s
     0     0  -87.08170    0   10    0.91960  -87.08170  9570%     -   39s
     0     0  -84.78930    0    8    0.91960  -84.78930  9320%     -   39s
     0     0  -84.71764    0    7    0.91960  -84.71764  9312%     -   39s
     0     0  -82.75565    0    7    0.91960  -82.75565  9099%     -   39s
     0     0  -82.75565    0    7    0.91960  -82.75565  9099%     -   46s
     0     0  -78.81430    0    8    0.91960  -78.81430  8671%     -   46s
     0     0  -78.77656    0    8    0.91960  -78.77656  8666%     -   46s
     0     0  -70.08152    0    9    0.91960  -70.08152  7721%     -   46s
     0     0  -70.08152    0    9    0.91960  -70.08152  7721%     -   50s
     0     0  -69.03114    0    7    0.91960  -69.03114  7607%     -   50s
     0     0  -68.99239    0    9    0.91960  -68.99239  7602%     -   50s
     0     0  -66.57316    0    9    0.91960  -66.57316  7339%     -   50s
     0     0  -66.57316    0    9    0.91960  -66.57316  7339%     -   57s
     0     0  -66.57316    0   10    0.91960  -66.57316  7339%     -   57s
     0     0  -66.57316    0   10    0.91960  -66.57316  7339%     -   60s
     0     0  -65.31798    0    9    0.91960  -65.31798  7203%     -   63s
     0     0  -63.75556    0    9    0.91960  -63.75556  7033%     -   63s
     0     0  -63.75556    0    9    0.91960  -63.75556  7033%     -   65s
     0     0  -63.52312    0    9    0.91960  -63.52312  7008%     -   65s
     0     0  -63.50099    0   10    0.91960  -63.50099  7005%     -   65s
     0     0  -62.41720    0   15    0.91960  -62.41720  6887%     -   65s
     0     0  -61.14794    0   12    0.91960  -61.14794  6749%     -   69s
     0     0  -56.91924    0   10    0.91960  -56.91924  6290%     -   69s
     0     0  -56.91924    0   10    0.91960  -56.91924  6290%     -   70s
     0     0  -56.75457    0   10    0.91960  -56.75457  6272%     -   70s
     0     0  -56.58097    0   11    0.91960  -56.58097  6253%     -   70s
     0     0  -56.31532    0   11    0.91960  -56.31532  6224%     -   70s
     0     0  -56.30921    0   11    0.91960  -56.30921  6223%     -   70s
     0     0  -56.15536    0   11    0.91960  -56.15536  6207%     -   70s
     0     0  -56.13131    0   11    0.91960  -56.13131  6204%     -   70s
     0     0  -56.10399    0   12    0.91960  -56.10399  6201%     -   70s
     0     0  -56.06884    0   12    0.91960  -56.06884  6197%     -   70s
     0     0  -56.06461    0   12    0.91960  -56.06461  6197%     -   70s
     0     0  -56.02033    0   12    0.91960  -56.02033  6192%     -   70s
     0     0  -55.72255    0   12    0.91960  -55.72255  6159%     -   71s
     0     0  -55.68237    0   11    0.91960  -55.68237  6155%     -   71s
     0     0  -55.67822    0   11    0.91960  -55.67822  6155%     -   71s
     0     0  -55.37552    0   10    0.91960  -55.37552  6122%     -   71s
     0     0  -55.31984    0   10    0.91960  -55.31984  6116%     -   71s
     0     0  -55.26382    0   11    0.91960  -55.26382  6110%     -   71s
     0     0  -55.20504    0   11    0.91960  -55.20504  6103%     -   71s
     0     0  -55.09816    0   12    0.91960  -55.09816  6092%     -   72s
     0     0  -55.01125    0   13    0.91960  -55.01125  6082%     -   72s
     0     0  -55.01125    0   13    0.91960  -55.01125  6082%     -   75s
     0     0  -55.00909    0   13    0.91960  -55.00909  6082%     -   75s
     0     0  -55.00909    0   13    0.91960  -55.00909  6082%     -   75s
     0     0  -55.00909    0   13    0.91960  -55.00909  6082%     -   80s
     0     2  -55.00909    0   13    0.91960  -55.00909  6082%     -   81s
    30    21   -3.08766    6    4    0.91960  -45.39274  5036%   5.0   85s
   141   113  -17.25062   18   10    0.91960  -40.13687  4465%   4.1   90s
   381   267   -7.60588   48    6    0.91960  -40.13687  4465%   3.7  104s
   461   311   -7.29388   58    4    0.91960  -40.13687  4465%   3.8  111s
   599   361  -13.11012   20    7    0.91960  -34.58755  3861%   3.9  119s
   703   406     cutoff   14         0.91960  -32.13858  3595%   4.0  123s
   826   469   -7.42646   25   11    0.91960  -28.00512  3145%   4.1  128s
   998   560     cutoff   46         0.91960  -22.06538  2499%   4.1  139s
  1173   646     cutoff   10         0.91960  -22.00351  2493%   4.2  151s
  1413   827     cutoff   14         0.91960  -19.08996  2176%   4.3  173s
  1670   955   -1.07433   45   11    0.91960  -17.26746  1978%   4.5  181s

Gurobi 9.1.2 (win64) logging started Sat Dec  4 18:30:40 2021

Gurobi Optimizer version 9.1.2 build v9.1.2rc0 (win64)
Thread count: 8 physical cores, 8 logical processors, using up to 8 threads
Optimize a model with 1 rows, 596 columns and 595 nonzeros
Model fingerprint: 0x6338475c
Variable types: 1 continuous, 595 integer (595 binary)
Coefficient statistics:
  Matrix range     [1e+00, 1e+01]
  Objective range  [1e+00, 1e+00]
  Bounds range     [1e+06, 1e+06]
  RHS range        [1e+01, 1e+01]
Presolve time: 0.00s
Presolved: 1 rows, 596 columns, 595 nonzeros
Variable types: 1 continuous, 595 integer (595 binary)

Root simplex log...

Iteration    Objective       Primal Inf.    Dual Inf.      Time
       0   -1.0000000e+06   8.954654e+02   0.000000e+00     21s
       2   -3.3224105e+02   0.000000e+00   0.000000e+00     21s

Root relaxation: objective -3.322410e+02, 2 iterations, 0.00 seconds

    Nodes    |    Current Node    |     Objective Bounds      |     Work
 Expl Unexpl |  Obj  Depth IntInf | Incumbent    BestBd   Gap | It/Node Time

     0     0 -332.24105    0    1          - -332.24105      -     -   20s
H    0     0                       0.9195978 -332.24105      -     -   21s
     0     0 -186.14988    0    3    0.91960 -186.14988      -     -   24s
     0     0 -186.14988    0    3    0.91960 -186.14988      -     -   27s
     0     0  -95.95015    0    5    0.91960  -95.95015      -     -   28s
     0     0  -95.95015    0    5    0.91960  -95.95015      -     -   30s
     0     0  -87.23958    0    9    0.91960  -87.23958  9587%     -   30s
     0     0  -87.08170    0   10    0.91960  -87.08170  9570%     -   32s
     0     0  -84.78930    0    8    0.91960  -84.78930  9320%     -   32s
     0     0  -84.71764    0    7    0.91960  -84.71764  9312%     -   32s
     0     0  -82.75565    0    7    0.91960  -82.75565  9099%     -   32s
     0     0  -82.75565    0    7    0.91960  -82.75565  9099%     -   37s
     0     0  -78.81430    0    8    0.91960  -78.81430  8671%     -   37s
     0     0  -78.77656    0    8    0.91960  -78.77656  8666%     -   37s
     0     0  -70.08152    0    9    0.91960  -70.08152  7721%     -   37s
     0     0  -70.08152    0    9    0.91960  -70.08152  7721%     -   40s
     0     0  -69.03114    0    7    0.91960  -69.03114  7607%     -   40s
     0     0  -68.99239    0    9    0.91960  -68.99239  7602%     -   40s
     0     0  -66.57316    0    9    0.91960  -66.57316  7339%     -   40s
     0     0  -66.57316    0    9    0.91960  -66.57316  7339%     -   47s
     0     0  -66.57316    0   10    0.91960  -66.57316  7339%     -   47s
     0     0  -66.57316    0   10    0.91960  -66.57316  7339%     -   50s
     0     0  -65.31798    0    9    0.91960  -65.31798  7203%     -   53s
     0     0  -63.75556    0    9    0.91960  -63.75556  7033%     -   53s
     0     0  -63.75556    0    9    0.91960  -63.75556  7033%     -   55s
     0     0  -63.52312    0    9    0.91960  -63.52312  7008%     -   55s
     0     0  -63.50099    0   10    0.91960  -63.50099  7005%     -   55s
     0     0  -62.41720    0   15    0.91960  -62.41720  6887%     -   55s
     0     0  -61.14794    0   12    0.91960  -61.14794  6749%     -   59s
     0     0  -56.91924    0   10    0.91960  -56.91924  6290%     -   59s
     0     0  -56.75457    0   10    0.91960  -56.75457  6272%     -   59s
     0     0  -56.58097    0   11    0.91960  -56.58097  6253%     -   59s
     0     0  -56.31532    0   11    0.91960  -56.31532  6224%     -   59s
     0     0  -56.30921    0   11    0.91960  -56.30921  6223%     -   59s
     0     0  -56.15536    0   11    0.91960  -56.15536  6207%     -   59s
     0     0  -56.13131    0   11    0.91960  -56.13131  6204%     -   59s
     0     0  -56.10399    0   12    0.91960  -56.10399  6201%     -   59s
     0     0  -56.06884    0   12    0.91960  -56.06884  6197%     -   59s
     0     0  -56.06461    0   12    0.91960  -56.06461  6197%     -   59s
     0     0  -56.02033    0   12    0.91960  -56.02033  6192%     -   59s
     0     0  -56.02033    0   12    0.91960  -56.02033  6192%     -   60s
     0     0  -55.72255    0   12    0.91960  -55.72255  6159%     -   60s
     0     0  -55.68237    0   11    0.91960  -55.68237  6155%     -   60s
     0     0  -55.67822    0   11    0.91960  -55.67822  6155%     -   60s
     0     0  -55.37552    0   10    0.91960  -55.37552  6122%     -   60s
     0     0  -55.31984    0   10    0.91960  -55.31984  6116%     -   60s
     0     0  -55.26382    0   11    0.91960  -55.26382  6110%     -   60s
     0     0  -55.20504    0   11    0.91960  -55.20504  6103%     -   60s
     0     0  -55.09816    0   12    0.91960  -55.09816  6092%     -   61s
     0     0  -55.01125    0   13    0.91960  -55.01125  6082%     -   61s
     0     0  -55.00909    0   13    0.91960  -55.00909  6082%     -   64s
     0     0  -55.00909    0   13    0.91960  -55.00909  6082%     -   64s
     0     0  -55.00909    0   13    0.91960  -55.00909  6082%     -   67s
     0     0  -55.00909    0   13    0.91960  -55.00909  6082%     -   70s
     0     2  -55.00909    0   13    0.91960  -55.00909  6082%     -   71s
    37    27  -37.07684    7    9    0.91960  -42.79846  4754%   5.0   76s
   268   192   -2.02880   33    8    0.91960  -40.13687  4465%   3.9   82s
   381   267   -7.60588   48    6    0.91960  -40.13687  4465%   3.7   93s

Gurobi 9.1.2 (win64) logging started Sat Dec  4 18:33:32 2021

Gurobi Optimizer version 9.1.2 build v9.1.2rc0 (win64)
Thread count: 8 physical cores, 8 logical processors, using up to 8 threads
Optimize a model with 1 rows, 596 columns and 595 nonzeros
Model fingerprint: 0x6338475c
Variable types: 1 continuous, 595 integer (595 binary)
Coefficient statistics:
  Matrix range     [1e+00, 1e+01]
  Objective range  [1e+00, 1e+00]
  Bounds range     [1e+06, 1e+06]
  RHS range        [1e+01, 1e+01]
Presolve time: 0.00s
Presolved: 1 rows, 596 columns, 595 nonzeros
Variable types: 1 continuous, 595 integer (595 binary)

Root simplex log...

Iteration    Objective       Primal Inf.    Dual Inf.      Time
       0   -1.0000000e+06   8.954654e+02   0.000000e+00     22s
       2   -3.3224105e+02   0.000000e+00   0.000000e+00     22s

Root relaxation: objective -3.322410e+02, 2 iterations, 0.00 seconds

    Nodes    |    Current Node    |     Objective Bounds      |     Work
 Expl Unexpl |  Obj  Depth IntInf | Incumbent    BestBd   Gap | It/Node Time

     0     0 -332.24105    0    1          - -332.24105      -     -   21s
H    0     0                       0.9195978 -332.24105      -     -   22s
     0     0 -186.14988    0    3    0.91960 -186.14988      -     -   27s

Gurobi 9.1.2 (win64) logging started Sat Dec  4 18:36:56 2021

Gurobi Optimizer version 9.1.2 build v9.1.2rc0 (win64)
Thread count: 8 physical cores, 8 logical processors, using up to 8 threads
Optimize a model with 1 rows, 596 columns and 595 nonzeros
Model fingerprint: 0x6338475c
Variable types: 1 continuous, 595 integer (595 binary)
Coefficient statistics:
  Matrix range     [1e+00, 1e+01]
  Objective range  [1e+00, 1e+00]
  Bounds range     [1e+06, 1e+06]
  RHS range        [1e+01, 1e+01]
Presolve time: 0.00s

Explored 0 nodes (0 simplex iterations) in 21.42 seconds
Thread count was 1 (of 8 available processors)

Solution count 0

Solve interrupted
Best objective -, best bound -, gap -

User-callback calls 24, time in user-callback 25.56 sec

Gurobi 9.1.2 (win64) logging started Sat Dec  4 18:40:18 2021

Gurobi Optimizer version 9.1.2 build v9.1.2rc0 (win64)
Thread count: 8 physical cores, 8 logical processors, using up to 8 threads
Optimize a model with 1 rows, 596 columns and 595 nonzeros
Model fingerprint: 0x6338475c
Variable types: 1 continuous, 595 integer (595 binary)
Coefficient statistics:
  Matrix range     [1e+00, 1e+01]
  Objective range  [1e+00, 1e+00]
  Bounds range     [1e+06, 1e+06]
  RHS range        [1e+01, 1e+01]
Presolve time: 0.00s

Explored 0 nodes (0 simplex iterations) in 22.23 seconds
Thread count was 1 (of 8 available processors)

Solution count 0

Solve interrupted
Best objective -, best bound -, gap -

User-callback calls 24, time in user-callback 26.41 sec

Gurobi 9.1.2 (win64) logging started Sat Dec  4 18:45:29 2021


Gurobi 9.1.2 (win64) logging started Sat Dec  4 18:45:40 2021

Gurobi Optimizer version 9.1.2 build v9.1.2rc0 (win64)
Thread count: 8 physical cores, 8 logical processors, using up to 8 threads
Optimize a model with 1 rows, 596 columns and 595 nonzeros
Model fingerprint: 0x6338475c
Variable types: 1 continuous, 595 integer (595 binary)
Coefficient statistics:
  Matrix range     [1e+00, 1e+01]
  Objective range  [1e+00, 1e+00]
  Bounds range     [1e+06, 1e+06]
  RHS range        [1e+01, 1e+01]

Gurobi 9.1.2 (win64) logging started Sat Dec  4 18:46:30 2021

Gurobi Optimizer version 9.1.2 build v9.1.2rc0 (win64)
Thread count: 8 physical cores, 8 logical processors, using up to 8 threads
Optimize a model with 1 rows, 596 columns and 595 nonzeros
Model fingerprint: 0x6338475c
Variable types: 1 continuous, 595 integer (595 binary)
Coefficient statistics:
  Matrix range     [1e+00, 1e+01]
  Objective range  [1e+00, 1e+00]
  Bounds range     [1e+06, 1e+06]
  RHS range        [1e+01, 1e+01]
Presolve time: 0.00s

Explored 0 nodes (0 simplex iterations) in 20.67 seconds
Thread count was 1 (of 8 available processors)

Solution count 0

Solve interrupted
Best objective -, best bound -, gap -

User-callback calls 24, time in user-callback 24.31 sec

Gurobi 9.1.2 (win64) logging started Sat Dec  4 18:47:46 2021

Gurobi Optimizer version 9.1.2 build v9.1.2rc0 (win64)
Thread count: 8 physical cores, 8 logical processors, using up to 8 threads
Optimize a model with 1 rows, 596 columns and 595 nonzeros
Model fingerprint: 0x6338475c
Variable types: 1 continuous, 595 integer (595 binary)
Coefficient statistics:
  Matrix range     [1e+00, 1e+01]
  Objective range  [1e+00, 1e+00]
  Bounds range     [1e+06, 1e+06]
  RHS range        [1e+01, 1e+01]
Presolve time: 0.00s
Presolved: 1 rows, 596 columns, 595 nonzeros
Variable types: 1 continuous, 595 integer (595 binary)

Root simplex log...

Iteration    Objective       Primal Inf.    Dual Inf.      Time
       0   -1.0000000e+06   8.954654e+02   0.000000e+00     20s
       2   -3.3224105e+02   0.000000e+00   0.000000e+00     20s

Root relaxation: objective -3.322410e+02, 2 iterations, 0.00 seconds

    Nodes    |    Current Node    |     Objective Bounds      |     Work
 Expl Unexpl |  Obj  Depth IntInf | Incumbent    BestBd   Gap | It/Node Time

     0     0 -332.24105    0    1          - -332.24105      -     -   20s
H    0     0                       0.9195978 -332.24105      -     -   21s
     0     0 -186.14988    0    3    0.91960 -186.14988      -     -   24s
     0     0 -186.14988    0    3    0.91960 -186.14988      -     -   27s
     0     0  -95.95015    0    5    0.91960  -95.95015      -     -   28s
     0     0  -95.95015    0    5    0.91960  -95.95015      -     -   30s
     0     0  -87.23958    0    9    0.91960  -87.23958  9587%     -   30s
     0     0  -87.08170    0   10    0.91960  -87.08170  9570%     -   32s
     0     0  -84.78930    0    8    0.91960  -84.78930  9320%     -   32s
     0     0  -84.71764    0    7    0.91960  -84.71764  9312%     -   32s
     0     0  -82.75565    0    7    0.91960  -82.75565  9099%     -   32s
     0     0  -82.75565    0    7    0.91960  -82.75565  9099%     -   36s
     0     0  -78.81430    0    8    0.91960  -78.81430  8671%     -   37s
     0     0  -78.77656    0    8    0.91960  -78.77656  8666%     -   37s
     0     0  -70.08152    0    9    0.91960  -70.08152  7721%     -   37s
     0     0  -70.08152    0    9    0.91960  -70.08152  7721%     -   40s
     0     0  -69.03114    0    7    0.91960  -69.03114  7607%     -   40s
     0     0  -68.99239    0    9    0.91960  -68.99239  7602%     -   40s
     0     0  -66.57316    0    9    0.91960  -66.57316  7339%     -   40s
     0     0  -66.57316    0    9    0.91960  -66.57316  7339%     -   46s
     0     0  -66.57316    0   10    0.91960  -66.57316  7339%     -   46s
     0     0  -66.57316    0   10    0.91960  -66.57316  7339%     -   50s
     0     0  -65.31798    0    9    0.91960  -65.31798  7203%     -   52s
     0     0  -63.75556    0    9    0.91960  -63.75556  7033%     -   52s
     0     0  -63.52312    0    9    0.91960  -63.52312  7008%     -   54s
     0     0  -63.50099    0   10    0.91960  -63.50099  7005%     -   54s
     0     0  -62.41720    0   15    0.91960  -62.41720  6887%     -   54s
     0     0  -62.41720    0   15    0.91960  -62.41720  6887%     -   55s
     0     0  -61.14794    0   12    0.91960  -61.14794  6749%     -   58s
     0     0  -56.91924    0   10    0.91960  -56.91924  6290%     -   58s
     0     0  -56.75457    0   10    0.91960  -56.75457  6272%     -   59s
     0     0  -56.58097    0   11    0.91960  -56.58097  6253%     -   59s
     0     0  -56.31532    0   11    0.91960  -56.31532  6224%     -   59s
     0     0  -56.30921    0   11    0.91960  -56.30921  6223%     -   59s
     0     0  -56.15536    0   11    0.91960  -56.15536  6207%     -   59s
     0     0  -56.13131    0   11    0.91960  -56.13131  6204%     -   59s
     0     0  -56.10399    0   12    0.91960  -56.10399  6201%     -   59s
     0     0  -56.06884    0   12    0.91960  -56.06884  6197%     -   59s
     0     0  -56.06461    0   12    0.91960  -56.06461  6197%     -   59s
     0     0  -56.02033    0   12    0.91960  -56.02033  6192%     -   59s
     0     0  -56.02033    0   12    0.91960  -56.02033  6192%     -   60s
     0     0  -55.72255    0   12    0.91960  -55.72255  6159%     -   60s
     0     0  -55.68237    0   11    0.91960  -55.68237  6155%     -   60s
     0     0  -55.67822    0   11    0.91960  -55.67822  6155%     -   60s
     0     0  -55.37552    0   10    0.91960  -55.37552  6122%     -   60s
     0     0  -55.31984    0   10    0.91960  -55.31984  6116%     -   60s
     0     0  -55.26382    0   11    0.91960  -55.26382  6110%     -   60s
     0     0  -55.20504    0   11    0.91960  -55.20504  6103%     -   60s
     0     0  -55.09816    0   12    0.91960  -55.09816  6092%     -   60s
     0     0  -55.01125    0   13    0.91960  -55.01125  6082%     -   60s
     0     0  -55.00909    0   13    0.91960  -55.00909  6082%     -   64s
     0     0  -55.00909    0   13    0.91960  -55.00909  6082%     -   64s
     0     0  -55.00909    0   13    0.91960  -55.00909  6082%     -   67s
     0     0  -55.00909    0   13    0.91960  -55.00909  6082%     -   70s
     0     2  -55.00909    0   13    0.91960  -55.00909  6082%     -   70s
    37    27  -37.07684    7    9    0.91960  -42.79846  4754%   5.0   76s
   268   192   -2.02880   33    8    0.91960  -40.13687  4465%   3.9   82s
   381   267   -7.60588   48    6    0.91960  -40.13687  4465%   3.7   93s
   461   311   -7.29388   58    4    0.91960  -40.13687  4465%   3.8   99s
   599   361  -13.11012   20    7    0.91960  -34.58755  3861%   3.9  107s
   703   406     cutoff   14         0.91960  -32.13858  3595%   4.0  111s
   826   469   -7.42646   25   11    0.91960  -28.00512  3145%   4.1  116s
   998   560     cutoff   46         0.91960  -22.06538  2499%   4.1  127s
  1173   646     cutoff   10         0.91960  -22.00351  2493%   4.2  138s
  1413   827     cutoff   14         0.91960  -19.08996  2176%   4.3  160s
  1670   955   -1.07433   45   11    0.91960  -17.26746  1978%   4.5  168s
  1975  1076   -4.22480   14    -    0.91960  -16.23714  1866%   4.5  185s
  2335  1229     cutoff   45         0.91960  -14.81786  1711%   4.7  206s
  2703  1421   -5.83772   31   10    0.91960  -13.75536  1596%   4.7  225s
  3113  1449   -5.88273   37    9    0.91960  -13.11986  1527%   4.7  240s
  3120  1454   -6.14901   27   12    0.91960  -13.11986  1527%   4.7  245s
  3144  1470   -8.81654   21   13    0.91960  -13.11986  1527%   4.7  253s
  3149  1473   -2.30427   59   13    0.91960  -13.11986  1527%   4.6  258s
  3156  1478   -3.02967   26   13    0.91960  -13.11986  1527%   4.6  263s
  3161  1481    0.74364   28   14    0.91960  -13.11986  1527%   4.6  266s
  3191  1501   -6.54438   16   14    0.91960  -13.11986  1527%   4.6  273s
  3202  1508   -7.42999   50   12    0.91960  -13.11986  1527%   4.6  279s
  3207  1512   -6.90449   41   12    0.91960  -13.11986  1527%   4.6  280s
  3220  1520   -6.14901   27   14    0.91960  -13.11986  1527%   4.5  285s
  3222  1522   -0.49865   56   16    0.91960  -13.11986  1527%   4.5  290s
  3238  1532   -9.36129   10   15    0.91960  -13.11986  1527%   4.5  299s
  3246  1538   -1.81901   25   16    0.91960  -13.11986  1527%   4.5  303s
  3254  1543   -7.14593   21   16    0.91960  -13.11986  1527%   4.5  305s
H 3262  1468                       0.9195978  -13.11986  1527%   4.5  309s
  3265  1470   -5.10923   23   15    0.91960  -13.11986  1527%   4.5  310s
H 3272  1398                       0.9195978  -13.11986  1527%   4.5  312s
  3292  1411  -10.70760   20   16    0.91960  -13.11986  1527%   4.4  318s
  3310  1423   -5.99783   17   15    0.91960  -13.11986  1527%   4.4  323s
  3319  1429   -9.84964   17   16    0.91960  -13.11986  1527%   4.4  328s
  3347  1448   -4.92240   16   14    0.91960  -13.11986  1527%   4.4  331s
  3509  1475  -13.11986   29    9    0.91960  -13.11986  1527%   4.8  336s
  3659  1493   -6.86805   38    8    0.91960  -13.11986  1527%   4.8  340s
  3774  1497     cutoff   47         0.91960  -13.11986  1527%   4.8  345s
  3987  1542   -1.60301   44    3    0.91960  -13.11986  1527%   4.9  350s
  4129  1539   -6.37532   36    7    0.91960  -13.11986  1527%   5.0  355s
  4263  1548     cutoff   41         0.91960  -13.11986  1527%   5.1  361s
  4471  1570   -5.95073   27    2    0.91960  -13.11986  1527%   5.1  365s
  4646  1555  -11.85837   32   11    0.91960  -13.11986  1527%   5.1  372s
  4747  1553   -9.52987   35   12    0.91960  -13.11986  1527%   5.1  378s
  4843  1541   -6.38265   38   10    0.91960  -13.11986  1527%   5.1  383s
  4942  1552   -5.26703   42    7    0.91960  -13.11986  1527%   5.1  389s
  5032  1533   -3.10932   47    -    0.91960  -13.11986  1527%   5.1  392s
  5130  1542 infeasible   50         0.91960  -12.22186  1429%   5.2  398s
  5230  1572   -6.54294   38    6    0.91960  -12.22186  1429%   5.2  409s
  5330  1581   -4.87319   51    5    0.91960  -11.53471  1354%   5.2  412s
  5447  1568 infeasible   59         0.91960  -11.33116  1332%   5.2  422s
  5558  1560   -5.77242   48   12    0.91960  -10.43602  1235%   5.2  427s
  5687  1555   -3.43651   54   13    0.91960  -10.43602  1235%   5.2  435s
  5789  1569   -2.09840   59   17    0.91960   -9.57788  1142%   5.2  441s
  6043  1518   -3.16975   37    5    0.91960   -8.83498  1061%   5.2  453s
  6184  1493   -2.05654   39    2    0.91960   -8.56459  1031%   5.2  458s
  6329  1461   -4.47524   47    5    0.91960   -8.15222   986%   5.2  465s
  6486  1451 infeasible   36         0.91960   -7.99632   970%   5.3  477s
  6630  1434   -4.61394   40   12    0.91960   -7.96512   966%   5.3  482s
  6781  1423   -0.88598   50    9    0.91960   -7.70890   938%   5.3  490s
  6930  1405    0.60028   43    2    0.91960   -7.47030   912%   5.3  501s
  7113  1383    0.60028   44    2    0.91960   -7.14682   877%   5.4  509s
  7264  1356   -5.86960   53   13    0.91960   -7.12087   874%   5.4  518s
  7407  1326   -4.27045   60   11    0.91960   -7.12087   874%   5.4  529s
  7573  1292   -3.31011   64   19    0.91960   -7.12087   874%   5.5  543s
  7769  1245   -0.63875   66    -    0.91960   -6.40275   796%   5.5  558s
  7980  1268     cutoff   66         0.91960   -6.05649   759%   5.5  569s
  8196  1216     cutoff   38         0.91960   -5.82123   733%   5.5  577s
  8413  1263     cutoff   62         0.91960   -5.63439   713%   5.5  593s
  8598  1236   -1.76105   53   13    0.91960   -5.22250   668%   5.6  598s
  8807  1227     cutoff   33         0.91960   -5.07483   652%   5.6  604s
  8810  1227   -1.78056   62   19    0.91960   -5.07483   652%   5.6  605s
H 8811  1227                       0.9195978   -5.07483   652%   5.6  606s
  8855  1203     cutoff   47         0.91960   -5.00443   644%   5.6  611s
  9083  1149   -1.78695   62    5    0.91960   -4.79238   621%   5.6  621s
  9367  1107     cutoff   61         0.91960   -4.47081   586%   5.7  638s
  9638  1062   -1.45654   42    1    0.91960   -3.94916   529%   5.7  655s
  9916  1052   -1.78994   52   10    0.91960   -3.84591   518%   5.7  669s
 10200   965     cutoff   61         0.91960   -3.62667   494%   5.7  690s
 10519   884    0.73981   56    3    0.91960   -3.14023   441%   5.8  710s
 10838   769     cutoff   60         0.91960   -2.77012   401%   5.8  727s
 11198   644   -1.39321   64   13    0.91960   -2.38120   359%   5.9  741s
 11571   405     cutoff   43         0.91960   -1.83565   300%   5.9  755s
 11983    23    0.67116   43    2    0.91960   -1.83565   300%   5.9  774s
 12493     0     cutoff   66         0.91960   -0.79086   186%   5.8  798s
 12571     0 infeasible   50         0.91960   -0.02136   102%   5.8  806s

Cutting planes:
  MIR: 13
  Flow cover: 1
  Lazy constraints: 644

Explored 12597 nodes (73239 simplex iterations) in 808.59 seconds
Thread count was 8 (of 8 available processors)

Solution count 4: 0.919598 0.919598 0.919598 0.919598 

Optimal solution found (tolerance 1.00e-04)
Best objective 9.195978061834e-01, best bound 9.195978061834e-01, gap 0.0000%

User-callback calls 29452, time in user-callback 776.17 sec
